; 
(set-info :status unknown)
(declare-fun node_0x7ffff1e0d870 () (_ BitVec 1))
(declare-fun node_0x7ffff1e0e0e0 () (_ BitVec 1))
(declare-fun folt_0x7ffff1e340a0 () (_ BitVec 1))
(declare-fun fmul_0x7ffff1e33e70 () (_ BitVec 64))
(declare-fun node_0x7ffff1e33d40 () (_ BitVec 64))
(declare-fun LdMem_0x7ffff1e19050 () (_ BitVec 64))
(declare-fun node_0x7ffff1e33760 () (_ BitVec 64))
(declare-fun node_0x7ffff1e32c60 () (_ BitVec 64))
(declare-fun LdMem_0x7ffff1e32e00 () (_ BitVec 64))
(declare-fun StMem_0x7ffff1e1bf20 () (_ BitVec 64))
(declare-fun R0x7ffff1e08390 () (_ BitVec 1))
(declare-fun node_0x7ffff1e1b720 () (_ BitVec 64))
(declare-fun fsub_0x7ffff1e1b8c0 () (_ BitVec 64))
(declare-fun LdMem_0x7ffff1e18170 () (_ BitVec 64))
(declare-fun node_0x7ffff1e1a1e0 () (_ BitVec 64))
(declare-fun node_0x7ffff1e1b370 () (_ BitVec 64))
(declare-fun fmul_0x7ffff1e1b4f0 () (_ BitVec 64))
(declare-fun node_0x7ffff1e1af20 () (_ BitVec 64))
(declare-fun node_0x7ffff1e1a650 () (_ BitVec 64))
(declare-fun node_0x7ffff1e197c0 () (_ BitVec 32))
(declare-fun si2f_0x7ffff1e1a7f0 () (_ BitVec 64))
(declare-fun folt_0x7ffff1e35b10 () (_ BitVec 1))
(declare-fun fmul_0x7ffff1e358e0 () (_ BitVec 64))
(declare-fun node_0x7ffff1e357b0 () (_ BitVec 64))
(declare-fun node_0x7ffff1e35220 () (_ BitVec 64))
(declare-fun node_0x7ffff1e34890 () (_ BitVec 64))
(declare-fun LdMem_0x7ffff1e34a30 () (_ BitVec 64))
(declare-fun pcso_node_0x18a03b90 () (_ BitVec 64))
(declare-fun StMem_0x18a03cd0 () (_ BitVec 64))
(declare-fun node_0x7ffff1e2edf0 () (_ BitVec 64))
(declare-fun StMem_0x7ffff1e2f5c0 () (_ BitVec 64))
(declare-fun fsub_0x7ffff1e2ef90 () (_ BitVec 64))
(declare-fun node_0x7ffff1e2ea40 () (_ BitVec 64))
(declare-fun node_0x7ffff1e2d800 () (_ BitVec 64))
(declare-fun fadd_0x7ffff1e2d9a0 () (_ BitVec 64))
(declare-fun LdMem_0x7ffff1e1e6c0 () (_ BitVec 64))
(declare-fun node_0x7ffff1e2c280 () (_ BitVec 64))
(declare-fun node_0x7ffff1e2d450 () (_ BitVec 64))
(declare-fun fmul_0x7ffff1e2d5d0 () (_ BitVec 64))
(declare-fun LdMem_0x7ffff1e255b0 () (_ BitVec 64))
(declare-fun node_0x7ffff1e2d000 () (_ BitVec 64))
(declare-fun node_0x7ffff1e2c6f0 () (_ BitVec 64))
(declare-fun ccso_node_0x7ffff1e1d2c0 () (_ BitVec 32))
(declare-fun si2f_0x7ffff1e2c890 () (_ BitVec 64))
(declare-fun fmul_0x7ffff1e2ebc0 () (_ BitVec 64))
(declare-fun LdMem_0x7ffff1e2b370 () (_ BitVec 64))
(declare-fun node_0x7ffff1e2e5f0 () (_ BitVec 64))
(declare-fun node_0x7ffff1e2dbd0 () (_ BitVec 64))
(declare-fun si2f_0x7ffff1e2dd70 () (_ BitVec 64))
(declare-fun node_0x7ffff1e2bae0 () (_ BitVec 32))
(declare-fun f2si_0x7ffff1e2bc80 () (_ BitVec 32))
(declare-fun node_0x7ffff1e2b6c0 () (_ BitVec 64))
(declare-fun fdiv_0x7ffff1e2b860 () (_ BitVec 64))
(declare-fun node_0x7ffff1e2b1f0 () (_ BitVec 64))
(declare-fun parg_node_0x18a07580 () (_ BitVec 64))
(declare-fun StMem_0x18a07470 () (_ BitVec 64))
(declare-fun node_0x7ffff1e2a750 () (_ BitVec 64))
(declare-fun fadd_0x7ffff1e2a8f0 () (_ BitVec 64))
(declare-fun node_0x7ffff1e2a3a0 () (_ BitVec 64))
(declare-fun node_0x7ffff1e22b50 () (_ BitVec 64))
(declare-fun fmul_0x7ffff1e2a520 () (_ BitVec 64))
(declare-fun node_0x7ffff1e29f50 () (_ BitVec 64))
(declare-fun node_0x7ffff1e22fc0 () (_ BitVec 64))
(declare-fun node_0x7ffff1e28ed0 () (_ BitVec 64))
(declare-fun StMem_0x7ffff1e296a0 () (_ BitVec 64))
(declare-fun fsub_0x7ffff1e29070 () (_ BitVec 64))
(declare-fun node_0x7ffff1e28b20 () (_ BitVec 64))
(declare-fun node_0x7ffff1e279f0 () (_ BitVec 64))
(declare-fun fadd_0x7ffff1e27b90 () (_ BitVec 64))
(declare-fun node_0x7ffff1e26470 () (_ BitVec 64))
(declare-fun node_0x7ffff1e27640 () (_ BitVec 64))
(declare-fun fmul_0x7ffff1e277c0 () (_ BitVec 64))
(declare-fun LdMem_0x7ffff1e1efd0 () (_ BitVec 64))
(declare-fun node_0x7ffff1e271f0 () (_ BitVec 64))
(declare-fun node_0x7ffff1e268e0 () (_ BitVec 64))
(declare-fun si2f_0x7ffff1e26a80 () (_ BitVec 64))
(declare-fun fmul_0x7ffff1e28ca0 () (_ BitVec 64))
(declare-fun node_0x7ffff1e286d0 () (_ BitVec 64))
(declare-fun node_0x7ffff1e27dc0 () (_ BitVec 64))
(declare-fun si2f_0x7ffff1e27f60 () (_ BitVec 64))
(declare-fun node_0x7ffff1e25cd0 () (_ BitVec 32))
(declare-fun f2si_0x7ffff1e25e70 () (_ BitVec 32))
(declare-fun node_0x7ffff1e258b0 () (_ BitVec 64))
(declare-fun fdiv_0x7ffff1e25a50 () (_ BitVec 64))
(declare-fun node_0x7ffff1e25430 () (_ BitVec 64))
(declare-fun parg_node_0x18a070c0 () (_ BitVec 64))
(declare-fun StMem_0x18a06fb0 () (_ BitVec 64))
(declare-fun node_0x7ffff1e24900 () (_ BitVec 64))
(declare-fun fadd_0x7ffff1e24aa0 () (_ BitVec 64))
(declare-fun node_0x7ffff1e23d40 () (_ BitVec 64))
(declare-fun fmul_0x7ffff1e246d0 () (_ BitVec 64))
(declare-fun node_0x7ffff1e23920 () (_ BitVec 64))
(declare-fun si2f_0x7ffff1e23160 () (_ BitVec 64))
(declare-fun node_0x7ffff1e21400 () (_ BitVec 64))
(declare-fun StMem_0x7ffff1e21bf0 () (_ BitVec 64))
(declare-fun fsub_0x7ffff1e215a0 () (_ BitVec 64))
(declare-fun node_0x7ffff1e21050 () (_ BitVec 64))
(declare-fun node_0x7ffff1e1fee0 () (_ BitVec 64))
(declare-fun pcso_node_0x18a02f90 () (_ BitVec 64))
(declare-fun StMem_0x18a03140 () (_ BitVec 64))
(declare-fun pcso_node_0x18a01050 () (_ BitVec 64))
(declare-fun StMem_0xb3757c0 () (_ BitVec 64))
(declare-fun pcso_node_0x189fdf90 () (_ BitVec 64))
(declare-fun StMem_0x189fe140 () (_ BitVec 64))
(declare-fun pcso_node_0x189fbad0 () (_ BitVec 64))
(declare-fun StMem_0x189fbc10 () (_ BitVec 64))
(declare-fun R0x7ffff1e0ae50 () (_ BitVec 1))
(declare-fun R0xb3a4670 () (_ BitVec 1))
(declare-fun R0xb3a5530 () (_ BitVec 1))
(declare-fun R0xb3a5b80 () (_ BitVec 1))
(declare-fun fmul_0x7ffff1e211d0 () (_ BitVec 64))
(declare-fun node_0x7ffff1e20c50 () (_ BitVec 64))
(declare-fun node_0x7ffff1e20300 () (_ BitVec 64))
(declare-fun si2f_0x7ffff1e204a0 () (_ BitVec 64))
(declare-fun node_0x7ffff1e1f740 () (_ BitVec 32))
(declare-fun f2si_0x7ffff1e1f8e0 () (_ BitVec 32))
(declare-fun node_0x7ffff1e1f320 () (_ BitVec 64))
(declare-fun fdiv_0x7ffff1e1f4c0 () (_ BitVec 64))
(declare-fun node_0x7ffff1e1e520 () (_ BitVec 64))
(declare-fun node_0x7ffff1e1ee50 () (_ BitVec 64))
(declare-fun parg_node_0x18a06250 () (_ BitVec 64))
(declare-fun StMem_0x18a05c00 () (_ BitVec 64))
(declare-fun R0x7ffff1e0bb20 () (_ BitVec 1))
(declare-fun R0xb3acbc0 () (_ BitVec 1))
(declare-fun and_0xb3adb40 () (_ BitVec 1))
(declare-fun R0xb3ad7b0 () (_ BitVec 1))
(declare-fun R0x7ffff1e0d200 () (_ BitVec 1))
(declare-fun R0x7ffff1e0c5a0 () (_ BitVec 1))
(declare-fun R0xb3abd80 () (_ BitVec 1))
(declare-fun and_0xb3ac3e0 () (_ BitVec 1))
(declare-fun R0xb3ac0e0 () (_ BitVec 1))
(declare-fun R0xb3ad160 () (_ BitVec 1))
(declare-fun and_0xb3ad4f0 () (_ BitVec 1))
(declare-fun node_0x7ffff1e0b4c0 () (_ BitVec 1))
(declare-fun R0x7ffff1e0b6f0 () (_ BitVec 1))
(declare-fun and_0xb3acf10 () (_ BitVec 1))
(declare-fun xor_0xb3ac8d0 () (_ BitVec 1))
(declare-fun R0xb3ac6f0 () (_ BitVec 1))
(declare-fun and_0x7ffff1e0c920 () (_ BitVec 1))
(declare-fun node_0x7ffff1e0c050 () (_ BitVec 1))
(declare-fun R0x7ffff1e0c280 () (_ BitVec 1))
(declare-fun xor_0xb3abf60 () (_ BitVec 1))
(declare-fun and_0x7ffff1e0d580 () (_ BitVec 1))
(declare-fun xor_0x7ffff1e0cf30 () (_ BitVec 1))
(declare-fun R0x7ffff1e0cd20 () (_ BitVec 1))
(declare-fun ieq_0x7ffff1e223c0 () (_ BitVec 1))
(declare-fun node_0x7ffff1e21fc0 () (_ BitVec 32))
(declare-fun srem_0x7ffff1e22160 () (_ BitVec 32))
(declare-fun xor_0x7ffff1e0bd30 () (_ BitVec 1))
(declare-fun ieq_0x7ffff1e1dd50 () (_ BitVec 1))
(declare-fun node_0x7ffff1e1d930 () (_ BitVec 32))
(declare-fun srem_0x7ffff1e1dad0 () (_ BitVec 32))
(declare-fun f2si_0x7ffff1e19960 () (_ BitVec 32))
(declare-fun node_0x7ffff1e193a0 () (_ BitVec 64))
(declare-fun fdiv_0x7ffff1e19540 () (_ BitVec 64))
(declare-fun node_0x7ffff1e18ed0 () (_ BitVec 64))
(declare-fun parg_node_0x18a037e0 () (_ BitVec 64))
(declare-fun StMem_0xb37f220 () (_ BitVec 64))
(declare-fun node_0x7ffff1e17fd0 () (_ BitVec 64))
(declare-fun pcso_node_0x18a02b80 () (_ BitVec 64))
(declare-fun StMem_0x18a02d30 () (_ BitVec 64))
(declare-fun pcso_node_0x18a00f10 () (_ BitVec 64))
(declare-fun StMem_0xb3749e0 () (_ BitVec 64))
(declare-fun pcso_node_0x189fdb80 () (_ BitVec 64))
(declare-fun StMem_0x189fdd30 () (_ BitVec 64))
(declare-fun pcso_node_0x189fb880 () (_ BitVec 64))
(declare-fun StMem_0x189fb9c0 () (_ BitVec 64))
(declare-fun R0x7ffff1e0a180 () (_ BitVec 1))
(declare-fun R0xb2e9c60 () (_ BitVec 1))
(declare-fun and_0xb3a4900 () (_ BitVec 1))
(declare-fun and_0xb3a58c0 () (_ BitVec 1))
(declare-fun node_0x7ffff1e091e0 () (_ BitVec 1))
(declare-fun R0x7ffff1e09490 () (_ BitVec 1))
(declare-fun R0xb3a5000 () (_ BitVec 1))
(declare-fun and_0xb3a61b0 () (_ BitVec 1))
(declare-fun R0x7ffff1e097d0 () (_ BitVec 1))
(declare-fun and_0xb3a52e0 () (_ BitVec 1))
(declare-fun xor_0xb3a4d80 () (_ BitVec 1))
(declare-fun R0xb3a4ba0 () (_ BitVec 1))
(declare-fun and_0x7ffff1e0a500 () (_ BitVec 1))
(declare-fun node_0x7ffff1e09cd0 () (_ BitVec 1))
(declare-fun R0x7ffff1e09ec0 () (_ BitVec 1))
(declare-fun xor_0xb3a4530 () (_ BitVec 1))
(declare-fun and_0x7ffff1e0b1d0 () (_ BitVec 1))
(declare-fun xor_0x7ffff1e0ab80 () (_ BitVec 1))
(declare-fun R0x7ffff1e0a970 () (_ BitVec 1))
(declare-fun ieq_0x7ffff1e147c0 () (_ BitVec 1))
(declare-fun LdMem_0x7ffff1e11b60 () (_ BitVec 32))
(declare-fun node_0x7ffff1e14250 () (_ BitVec 32))
(declare-fun xor_0x7ffff1e099e0 () (_ BitVec 1))
(declare-fun ieq_0x7ffff1e11de0 () (_ BitVec 1))
(declare-fun node_0x7ffff1e119e0 () (_ BitVec 32))
(declare-fun parg_node_0x189fc080 () (_ BitVec 32))
(declare-fun StMem_0x189fbf70 () (_ BitVec 32))
(declare-fun node_0x18a054b0 () (_ BitVec 32))
(declare-fun parg_node_0xb398ed0_CS0x42ed9a0 () (_ BitVec 32))
(declare-fun LdMem_0x18a04e60 () (_ BitVec 32))
(declare-fun parg_node_0x18a05180 () (_ BitVec 32))
(declare-fun StMem_0x18a04fd0 () (_ BitVec 32))
(declare-fun return_node_0x7ffff1e429b0_CS0x42ed9a0 () (_ BitVec 32))
(declare-fun node_0xfd66af0_CS0x42eafc0 () (_ BitVec 64))
(declare-fun node_0x7ffff1e12570 () (_ BitVec 64))
(declare-fun carg_node_0x7ffff1c37920_CS0x42eb808 () (_ BitVec 64))
(declare-fun ccso_node_0x7ffff1e0d9c0 () (_ BitVec 64))
(declare-fun fadd_0x7ffff1e12710 () (_ BitVec 64))
(declare-fun node_0xfe2db50_CS0x42eb808 () (_ BitVec 64))
(declare-fun node_0x7ffff1e15140 () (_ BitVec 64))
(declare-fun carg_node_0x7ffff1c37920_CS0x42ec0f8 () (_ BitVec 64))
(declare-fun ccso_node_0x7ffff1e14d60 () (_ BitVec 64))
(declare-fun fadd_0x7ffff1e152e0 () (_ BitVec 64))
(declare-fun node_0xfe2db50_CS0x42ec0f8 () (_ BitVec 64))
(declare-fun carg_node_0x7ffff1c37920_CS0x42ec5f8 () (_ BitVec 64))
(declare-fun node_0xfe2db50_CS0x42ec5f8 () (_ BitVec 64))
(declare-fun node_0xfd66e40_CS0x42eafc0 () (_ BitVec 64))
(declare-fun carg_node_0x7ffff1e08910 () (_ BitVec 64))
(assert
 (let (($x344 (= node_0x7ffff1e0d870 (_ bv1 1))))
 (let (($x264 (not $x344)))
 (let (($x123 (= node_0x7ffff1e0e0e0 (_ bv1 1))))
 (let (($x365 (not $x123)))
 (and $x365 $x264))))))
(assert
 (let (($x841 (= node_0x7ffff1e0d870 folt_0x7ffff1e340a0)))
 (let (($x358 (or (or (= (_ bv0 64) (_ bv0 64)) (= node_0x7ffff1e33760 (_ bv0 64))) (and (distinct fmul_0x7ffff1e33e70 (_ bv0 64)) true))))
 (let (($x356 (and (= fmul_0x7ffff1e33e70 (bvmul (_ bv0 64) node_0x7ffff1e33760)) $x358)))
 (let (($x162 (= folt_0x7ffff1e340a0 (ite (bvslt node_0x7ffff1e32c60 node_0x7ffff1e33d40) (_ bv1 1) (_ bv0 1)))))
 (let (($x924 (= node_0x7ffff1e32c60 LdMem_0x7ffff1e32e00)))
 (let (($x909 (= LdMem_0x7ffff1e32e00 StMem_0x7ffff1e1bf20)))
 (let (($x80 (= fsub_0x7ffff1e1b8c0 (bvsub node_0x7ffff1e1a1e0 node_0x7ffff1e1b370))))
 (let (($x609 (= node_0x7ffff1e1b370 fmul_0x7ffff1e1b4f0)))
 (let (($x362 (or (or (= node_0x7ffff1e1a650 (_ bv0 64)) (= node_0x7ffff1e1af20 (_ bv0 64))) (and (distinct fmul_0x7ffff1e1b4f0 (_ bv0 64)) true))))
 (let (($x271 (= fmul_0x7ffff1e1b4f0 (bvmul node_0x7ffff1e1a650 node_0x7ffff1e1af20))))
 (let (($x200 (and $x271 $x362)))
 (let (($x333 (= si2f_0x7ffff1e1a7f0 ((_ sign_extend 32) node_0x7ffff1e197c0))))
 (let (($x784 (= node_0x7ffff1e1a650 si2f_0x7ffff1e1a7f0)))
 (let (($x933 (= node_0x7ffff1e0e0e0 folt_0x7ffff1e35b10)))
 (let (($x710 (or (or (= (_ bv0 64) (_ bv0 64)) (= node_0x7ffff1e35220 (_ bv0 64))) (and (distinct fmul_0x7ffff1e358e0 (_ bv0 64)) true))))
 (let (($x711 (and (= fmul_0x7ffff1e358e0 (bvmul (_ bv0 64) node_0x7ffff1e35220)) $x710)))
 (let (($x304 (= folt_0x7ffff1e35b10 (ite (bvslt node_0x7ffff1e34890 node_0x7ffff1e357b0) (_ bv1 1) (_ bv0 1)))))
 (let (($x895 (= node_0x7ffff1e34890 LdMem_0x7ffff1e34a30)))
 (let (($x911 (= StMem_0x18a03cd0 pcso_node_0x18a03b90)))
 (let (($x745 (= StMem_0x7ffff1e2f5c0 node_0x7ffff1e2edf0)))
 (let (($x618 (= fsub_0x7ffff1e2ef90 (bvsub node_0x7ffff1e2d800 node_0x7ffff1e2ea40))))
 (let (($x792 (= node_0x7ffff1e2d800 fadd_0x7ffff1e2d9a0)))
 (let (($x624 (= fadd_0x7ffff1e2d9a0 (bvadd node_0x7ffff1e2c280 node_0x7ffff1e2d450))))
 (let (($x929 (= node_0x7ffff1e2d450 fmul_0x7ffff1e2d5d0)))
 (let (($x636 (or (or (= node_0x7ffff1e2c6f0 (_ bv0 64)) (= node_0x7ffff1e2d000 (_ bv0 64))) (and (distinct fmul_0x7ffff1e2d5d0 (_ bv0 64)) true))))
 (let (($x631 (= fmul_0x7ffff1e2d5d0 (bvmul node_0x7ffff1e2c6f0 node_0x7ffff1e2d000))))
 (let (($x637 (and $x631 $x636)))
 (let ((?x543 ((_ sign_extend 32) ccso_node_0x7ffff1e1d2c0)))
 (let (($x640 (= si2f_0x7ffff1e2c890 ?x543)))
 (let (($x450 (= node_0x7ffff1e2ea40 fmul_0x7ffff1e2ebc0)))
 (let (($x884 (= node_0x7ffff1e2e5f0 LdMem_0x7ffff1e2b370)))
 (let (($x652 (or (or (= node_0x7ffff1e2dbd0 (_ bv0 64)) (= node_0x7ffff1e2e5f0 (_ bv0 64))) (and (distinct fmul_0x7ffff1e2ebc0 (_ bv0 64)) true))))
 (let ((?x646 (bvmul node_0x7ffff1e2dbd0 node_0x7ffff1e2e5f0)))
 (let (($x647 (= fmul_0x7ffff1e2ebc0 ?x646)))
 (let (($x653 (and $x647 $x652)))
 (let (($x715 (= node_0x7ffff1e2dbd0 si2f_0x7ffff1e2dd70)))
 (let (($x658 (= si2f_0x7ffff1e2dd70 ((_ sign_extend 32) node_0x7ffff1e2bae0))))
 (let (($x245 (= node_0x7ffff1e2bae0 f2si_0x7ffff1e2bc80)))
 (let ((?x662 ((_ extract 31 0) node_0x7ffff1e2b6c0)))
 (let (($x663 (= f2si_0x7ffff1e2bc80 ?x662)))
 (let (($x691 (= node_0x7ffff1e2b6c0 fdiv_0x7ffff1e2b860)))
 (let (($x506 (= LdMem_0x7ffff1e2b370 StMem_0x18a07470)))
 (let (($x674 (or (or (= node_0x7ffff1e2a750 (_ bv0 64)) (= node_0x7ffff1e2b1f0 (_ bv0 64))) (and (distinct fdiv_0x7ffff1e2b860 (_ bv0 64)) true))))
 (let (($x669 (= fdiv_0x7ffff1e2b860 (bvsdiv node_0x7ffff1e2a750 node_0x7ffff1e2b1f0))))
 (let (($x675 (and $x669 $x674)))
 (let (($x730 (= node_0x7ffff1e2a750 fadd_0x7ffff1e2a8f0)))
 (let (($x680 (= fadd_0x7ffff1e2a8f0 (bvadd node_0x7ffff1e22b50 node_0x7ffff1e2a3a0))))
 (let (($x918 (= node_0x7ffff1e2a3a0 fmul_0x7ffff1e2a520)))
 (let (($x689 (or (or (= node_0x7ffff1e22fc0 (_ bv0 64)) (= node_0x7ffff1e29f50 (_ bv0 64))) (and (distinct fmul_0x7ffff1e2a520 (_ bv0 64)) true))))
 (let (($x685 (= fmul_0x7ffff1e2a520 (bvmul node_0x7ffff1e22fc0 node_0x7ffff1e29f50))))
 (let (($x690 (and $x685 $x689)))
 (let (($x861 (= StMem_0x7ffff1e296a0 node_0x7ffff1e28ed0)))
 (let (($x520 (= fsub_0x7ffff1e29070 (bvsub node_0x7ffff1e279f0 node_0x7ffff1e28b20))))
 (let (($x545 (= node_0x7ffff1e279f0 fadd_0x7ffff1e27b90)))
 (let (($x526 (= fadd_0x7ffff1e27b90 (bvadd node_0x7ffff1e26470 node_0x7ffff1e27640))))
 (let (($x780 (= node_0x7ffff1e27640 fmul_0x7ffff1e277c0)))
 (let (($x538 (or (or (= node_0x7ffff1e268e0 (_ bv0 64)) (= node_0x7ffff1e271f0 (_ bv0 64))) (and (distinct fmul_0x7ffff1e277c0 (_ bv0 64)) true))))
 (let (($x533 (= fmul_0x7ffff1e277c0 (bvmul node_0x7ffff1e268e0 node_0x7ffff1e271f0))))
 (let (($x539 (and $x533 $x538)))
 (let (($x544 (= si2f_0x7ffff1e26a80 ?x543)))
 (let (($x471 (= node_0x7ffff1e268e0 si2f_0x7ffff1e26a80)))
 (let (($x483 (= node_0x7ffff1e28b20 fmul_0x7ffff1e28ca0)))
 (let (($x889 (= node_0x7ffff1e286d0 LdMem_0x7ffff1e255b0)))
 (let (($x553 (= node_0x7ffff1e286d0 (_ bv0 64))))
 (let (($x552 (= node_0x7ffff1e27dc0 (_ bv0 64))))
 (let (($x554 (or $x552 $x553)))
 (let ((?x550 (bvmul node_0x7ffff1e27dc0 node_0x7ffff1e286d0)))
 (let (($x551 (= fmul_0x7ffff1e28ca0 ?x550)))
 (let (($x557 (and $x551 (or $x554 (and (distinct fmul_0x7ffff1e28ca0 (_ bv0 64)) true)))))
 (let (($x906 (= node_0x7ffff1e27dc0 si2f_0x7ffff1e27f60)))
 (let (($x562 (= si2f_0x7ffff1e27f60 ((_ sign_extend 32) node_0x7ffff1e25cd0))))
 (let (($x718 (= node_0x7ffff1e25cd0 f2si_0x7ffff1e25e70)))
 (let ((?x566 ((_ extract 31 0) node_0x7ffff1e258b0)))
 (let (($x567 (= f2si_0x7ffff1e25e70 ?x566)))
 (let (($x253 (= node_0x7ffff1e258b0 fdiv_0x7ffff1e25a50)))
 (let (($x547 (= node_0x7ffff1e25430 LdMem_0x7ffff1e255b0)))
 (let (($x820 (= LdMem_0x7ffff1e255b0 StMem_0x18a06fb0)))
 (let (($x578 (or (or (= node_0x7ffff1e24900 (_ bv0 64)) (= node_0x7ffff1e25430 (_ bv0 64))) (and (distinct fdiv_0x7ffff1e25a50 (_ bv0 64)) true))))
 (let (($x573 (= fdiv_0x7ffff1e25a50 (bvsdiv node_0x7ffff1e24900 node_0x7ffff1e25430))))
 (let (($x579 (and $x573 $x578)))
 (let (($x717 (= node_0x7ffff1e24900 fadd_0x7ffff1e24aa0)))
 (let (($x585 (= fadd_0x7ffff1e24aa0 (bvadd node_0x7ffff1e22b50 node_0x7ffff1e23d40))))
 (let (($x173 (= node_0x7ffff1e23d40 fmul_0x7ffff1e246d0)))
 (let (($x597 (or (or (= node_0x7ffff1e22fc0 (_ bv0 64)) (= node_0x7ffff1e23920 (_ bv0 64))) (and (distinct fmul_0x7ffff1e246d0 (_ bv0 64)) true))))
 (let (($x592 (= fmul_0x7ffff1e246d0 (bvmul node_0x7ffff1e22fc0 node_0x7ffff1e23920))))
 (let (($x598 (and $x592 $x597)))
 (let (($x601 (= si2f_0x7ffff1e23160 ?x543)))
 (let (($x457 (= StMem_0x7ffff1e21bf0 node_0x7ffff1e21400)))
 (let (($x411 (= fsub_0x7ffff1e215a0 (bvsub node_0x7ffff1e1fee0 node_0x7ffff1e21050))))
 (let (($x839 (= node_0x7ffff1e1fee0 LdMem_0x7ffff1e1e6c0)))
 (let (($x493 (= StMem_0x18a03140 pcso_node_0x18a02f90)))
 (let (($x693 (= StMem_0xb3757c0 pcso_node_0x18a01050)))
 (let (($x756 (= StMem_0x189fe140 pcso_node_0x189fdf90)))
 (let (($x739 (= StMem_0x189fbc10 pcso_node_0x189fbad0)))
 (let (($x772 (= LdMem_0x7ffff1e1e6c0 StMem_0x18a03140)))
 (let (($x255 (= LdMem_0x7ffff1e1e6c0 StMem_0xb3757c0)))
 (let (($x826 (= LdMem_0x7ffff1e1e6c0 StMem_0x189fe140)))
 (let (($x885 (= LdMem_0x7ffff1e1e6c0 StMem_0x189fbc10)))
 (let (($x305 (= node_0x7ffff1e21050 fmul_0x7ffff1e211d0)))
 (let (($x586 (= node_0x7ffff1e20c50 LdMem_0x7ffff1e1efd0)))
 (let (($x477 (= node_0x7ffff1e20c50 (_ bv0 64))))
 (let (($x476 (= node_0x7ffff1e20300 (_ bv0 64))))
 (let (($x478 (or $x476 $x477)))
 (let ((?x474 (bvmul node_0x7ffff1e20300 node_0x7ffff1e20c50)))
 (let (($x475 (= fmul_0x7ffff1e211d0 ?x474)))
 (let (($x481 (and $x475 (or $x478 (and (distinct fmul_0x7ffff1e211d0 (_ bv0 64)) true)))))
 (let (($x430 (= node_0x7ffff1e20300 si2f_0x7ffff1e204a0)))
 (let (($x486 (= si2f_0x7ffff1e204a0 ((_ sign_extend 32) node_0x7ffff1e1f740))))
 (let (($x920 (= node_0x7ffff1e1f740 f2si_0x7ffff1e1f8e0)))
 (let ((?x490 ((_ extract 31 0) node_0x7ffff1e1f320)))
 (let (($x491 (= f2si_0x7ffff1e1f8e0 ?x490)))
 (let (($x825 (= node_0x7ffff1e1f320 fdiv_0x7ffff1e1f4c0)))
 (let (($x502 (or (or (= node_0x7ffff1e1e520 (_ bv0 64)) (= node_0x7ffff1e1ee50 (_ bv0 64))) (and (distinct fdiv_0x7ffff1e1f4c0 (_ bv0 64)) true))))
 (let (($x497 (= fdiv_0x7ffff1e1f4c0 (bvsdiv node_0x7ffff1e1e520 node_0x7ffff1e1ee50))))
 (let (($x503 (and $x497 $x502)))
 (let (($x887 (= node_0x7ffff1e1ee50 LdMem_0x7ffff1e1efd0)))
 (let (($x409 (= LdMem_0x7ffff1e1efd0 StMem_0x18a05c00)))
 (let (($x701 (= LdMem_0x7ffff1e34a30 StMem_0x18a03cd0)))
 (let (($x766 (= LdMem_0x7ffff1e34a30 StMem_0x7ffff1e2f5c0)))
 (let (($x913 (= LdMem_0x7ffff1e34a30 StMem_0x7ffff1e296a0)))
 (let (($x871 (= LdMem_0x7ffff1e34a30 StMem_0x7ffff1e21bf0)))
 (let (($x433 (= and_0xb3adb40 (bvand R0xb3acbc0 R0x7ffff1e0bb20))))
 (let (($x695 (= R0xb3ad7b0 and_0xb3adb40)))
 (let (($x803 (or (not (= R0xb3ad7b0 (_ bv1 1))) $x701)))
 (let (($x728 (or (not (= R0x7ffff1e0d200 (_ bv1 1))) $x766)))
 (let (($x378 (= and_0xb3ac3e0 (bvand R0xb3abd80 R0x7ffff1e0c5a0))))
 (let (($x759 (= R0xb3ac0e0 and_0xb3ac3e0)))
 (let (($x916 (or (not (= R0xb3ac0e0 (_ bv1 1))) $x913)))
 (let (($x460 (= R0xb3ad160 and_0xb3ad4f0)))
 (let (($x665 (= R0x7ffff1e0b6f0 node_0x7ffff1e0b4c0)))
 (let (($x230 (= and_0xb3ad4f0 (bvand R0xb3acbc0 R0x7ffff1e0b6f0))))
 (let (($x765 (= R0xb3acbc0 and_0xb3acf10)))
 (let (($x729 (= R0xb3ac6f0 xor_0xb3ac8d0)))
 (let (($x211 (= xor_0xb3ac8d0 (bvxor R0x7ffff1e0c5a0 (_ bv1 1)))))
 (let (($x869 (= R0x7ffff1e0c5a0 and_0x7ffff1e0c920)))
 (let (($x387 (= R0x7ffff1e0c280 node_0x7ffff1e0c050)))
 (let (($x385 (= and_0x7ffff1e0c920 (bvand R0x7ffff1e0bb20 R0x7ffff1e0c280))))
 (let (($x423 (= and_0xb3acf10 (bvand R0xb3abd80 R0xb3ac6f0))))
 (let (($x405 (= R0xb3abd80 xor_0xb3abf60)))
 (let (($x150 (= xor_0xb3abf60 (bvxor R0x7ffff1e0d200 (_ bv1 1)))))
 (let (($x734 (= R0x7ffff1e0d200 and_0x7ffff1e0d580)))
 (let (($x719 (= R0x7ffff1e0cd20 xor_0x7ffff1e0cf30)))
 (let (($x402 (= xor_0x7ffff1e0cf30 (bvxor node_0x7ffff1e0c050 (_ bv1 1)))))
 (let (($x448 (= node_0x7ffff1e0c050 ieq_0x7ffff1e223c0)))
 (let (($x106 (= ieq_0x7ffff1e223c0 (ite (= node_0x7ffff1e21fc0 (_ bv1 32)) (_ bv1 1) (_ bv0 1)))))
 (let ((?x83 (bvsrem node_0x7ffff1e197c0 (_ bv3 32))))
 (let (($x118 (= srem_0x7ffff1e22160 ?x83)))
 (let (($x393 (= and_0x7ffff1e0d580 (bvand R0x7ffff1e0bb20 R0x7ffff1e0cd20))))
 (let (($x919 (= R0x7ffff1e0bb20 xor_0x7ffff1e0bd30)))
 (let (($x418 (= xor_0x7ffff1e0bd30 (bvxor node_0x7ffff1e0b4c0 (_ bv1 1)))))
 (let (($x275 (= node_0x7ffff1e0b4c0 ieq_0x7ffff1e1dd50)))
 (let (($x76 (= node_0x7ffff1e1d930 (_ bv0 32))))
 (let ((?x77 (ite $x76 (_ bv1 1) (_ bv0 1))))
 (let (($x78 (= ieq_0x7ffff1e1dd50 ?x77)))
 (let (($x735 (= node_0x7ffff1e1d930 srem_0x7ffff1e1dad0)))
 (let (($x84 (= srem_0x7ffff1e1dad0 ?x83)))
 (let (($x698 (= node_0x7ffff1e197c0 f2si_0x7ffff1e19960)))
 (let ((?x88 ((_ extract 31 0) node_0x7ffff1e193a0)))
 (let (($x89 (= f2si_0x7ffff1e19960 ?x88)))
 (let (($x278 (= node_0x7ffff1e193a0 fdiv_0x7ffff1e19540)))
 (let (($x788 (= node_0x7ffff1e18ed0 LdMem_0x7ffff1e19050)))
 (let (($x767 (= LdMem_0x7ffff1e19050 StMem_0xb37f220)))
 (let (($x97 (= node_0x7ffff1e18ed0 (_ bv0 64))))
 (let (($x96 (= node_0x7ffff1e17fd0 (_ bv0 64))))
 (let (($x98 (or $x96 $x97)))
 (let (($x95 (= fdiv_0x7ffff1e19540 (bvsdiv node_0x7ffff1e17fd0 node_0x7ffff1e18ed0))))
 (let (($x101 (and $x95 (or $x98 (and (distinct fdiv_0x7ffff1e19540 (_ bv0 64)) true)))))
 (let (($x876 (= node_0x7ffff1e17fd0 LdMem_0x7ffff1e18170)))
 (let (($x725 (= StMem_0x18a02d30 pcso_node_0x18a02b80)))
 (let (($x846 (= StMem_0xb3749e0 pcso_node_0x18a00f10)))
 (let (($x897 (= StMem_0x189fdd30 pcso_node_0x189fdb80)))
 (let (($x853 (= StMem_0x189fb9c0 pcso_node_0x189fb880)))
 (let (($x403 (= LdMem_0x7ffff1e18170 StMem_0x18a02d30)))
 (let (($x834 (= LdMem_0x7ffff1e18170 StMem_0xb3749e0)))
 (let (($x761 (= LdMem_0x7ffff1e18170 StMem_0x189fdd30)))
 (let (($x727 (= LdMem_0x7ffff1e18170 StMem_0x189fb9c0)))
 (let (($x183 (= and_0xb3a4900 (bvand R0xb2e9c60 R0x7ffff1e0a180))))
 (let (($x152 (= R0xb3a4670 and_0xb3a4900)))
 (let (($x406 (= R0xb3a5530 and_0xb3a58c0)))
 (let (($x564 (= R0x7ffff1e09490 node_0x7ffff1e091e0)))
 (let (($x172 (= and_0xb3a58c0 (bvand R0xb3a5000 R0x7ffff1e09490))))
 (let (($x819 (= R0xb3a5b80 and_0xb3a61b0)))
 (let (($x110 (= and_0xb3a61b0 (bvand R0xb3a5000 R0x7ffff1e097d0))))
 (let (($x703 (= R0xb3a5000 and_0xb3a52e0)))
 (let (($x351 (= R0xb3a4ba0 xor_0xb3a4d80)))
 (let (($x155 (= xor_0xb3a4d80 (bvxor R0x7ffff1e0a180 (_ bv1 1)))))
 (let (($x641 (= R0x7ffff1e0a180 and_0x7ffff1e0a500)))
 (let (($x799 (= R0x7ffff1e09ec0 node_0x7ffff1e09cd0)))
 (let (($x160 (= and_0x7ffff1e0a500 (bvand R0x7ffff1e097d0 R0x7ffff1e09ec0))))
 (let (($x116 (= and_0xb3a52e0 (bvand R0xb2e9c60 R0xb3a4ba0))))
 (let (($x796 (= R0xb2e9c60 xor_0xb3a4530)))
 (let (($x121 (= xor_0xb3a4530 (bvxor R0x7ffff1e0ae50 (_ bv1 1)))))
 (let (($x959 (= R0x7ffff1e0ae50 and_0x7ffff1e0b1d0)))
 (let (($x343 (= R0x7ffff1e0a970 xor_0x7ffff1e0ab80)))
 (let (($x142 (= xor_0x7ffff1e0ab80 (bvxor node_0x7ffff1e09cd0 (_ bv1 1)))))
 (let (($x237 (= node_0x7ffff1e09cd0 ieq_0x7ffff1e147c0)))
 (let (($x149 (= ieq_0x7ffff1e147c0 (ite (= node_0x7ffff1e14250 (_ bv1 32)) (_ bv1 1) (_ bv0 1)))))
 (let (($x126 (= and_0x7ffff1e0b1d0 (bvand R0x7ffff1e097d0 R0x7ffff1e0a970))))
 (let (($x465 (= R0x7ffff1e097d0 xor_0x7ffff1e099e0)))
 (let (($x130 (= xor_0x7ffff1e099e0 (bvxor node_0x7ffff1e091e0 (_ bv1 1)))))
 (let (($x770 (= node_0x7ffff1e091e0 ieq_0x7ffff1e11de0)))
 (let (($x47 (= node_0x7ffff1e119e0 (_ bv0 32))))
 (let ((?x48 (ite $x47 (_ bv1 1) (_ bv0 1))))
 (let (($x49 (= ieq_0x7ffff1e11de0 ?x48)))
 (let (($x723 (= node_0x7ffff1e119e0 LdMem_0x7ffff1e11b60)))
 (let (($x463 (= LdMem_0x7ffff1e11b60 StMem_0x189fbf70)))
 (and (or (not (= R0x7ffff1e08390 (_ bv1 1))) $x463) $x463 (= StMem_0x189fbf70 parg_node_0x189fc080) $x723 $x49 $x770 $x130 $x465 $x126 $x149 (= node_0x7ffff1e14250 LdMem_0x7ffff1e11b60) $x237 $x142 $x343 $x959 $x121 $x796 $x116 $x160 $x799 $x641 $x155 $x351 $x703 $x110 $x819 (or (not (= R0xb3a5b80 (_ bv1 1))) $x727) (or (not (= R0xb3a5530 (_ bv1 1))) $x761) $x172 $x564 $x406 (or (not (= R0xb3a4670 (_ bv1 1))) $x834) $x152 $x183 (or (not (= R0x7ffff1e0ae50 (_ bv1 1))) $x403) (or $x727 $x761 $x834 $x403) $x853 $x897 $x846 $x725 $x876 $x101 (or (not (= R0x7ffff1e08390 (_ bv1 1))) $x767) $x767 (= StMem_0xb37f220 parg_node_0x18a037e0) $x788 $x278 $x89 $x698 $x84 $x735 $x78 $x275 $x418 $x919 $x393 (= node_0x7ffff1e21fc0 srem_0x7ffff1e22160) $x118 $x106 $x448 $x402 $x719 $x734 $x150 $x405 $x423 $x385 $x387 $x869 $x211 $x729 $x765 $x230 $x665 $x460 (or (not (= R0xb3ad160 (_ bv1 1))) $x871) $x916 $x759 $x378 $x728 $x803 $x695 $x433 (or $x871 $x913 $x766 $x701) (or (not (= R0x7ffff1e08390 (_ bv1 1))) $x409) $x409 (= StMem_0x18a05c00 parg_node_0x18a06250) $x887 $x503 (= node_0x7ffff1e1e520 LdMem_0x7ffff1e1e6c0) $x825 $x491 $x920 $x486 $x430 $x481 $x586 $x305 (or (not (= R0xb3a5b80 (_ bv1 1))) $x885) (or (not (= R0xb3a5530 (_ bv1 1))) $x826) (or (not (= R0xb3a4670 (_ bv1 1))) $x255) (or (not (= R0x7ffff1e0ae50 (_ bv1 1))) $x772) (or $x885 $x826 $x255 $x772) $x739 $x756 $x693 $x493 $x839 $x411 (= node_0x7ffff1e21400 fsub_0x7ffff1e215a0) $x457 (= node_0x7ffff1e22fc0 si2f_0x7ffff1e23160) $x601 $x598 (= node_0x7ffff1e23920 LdMem_0x7ffff1e1efd0) $x173 $x585 (= node_0x7ffff1e22b50 LdMem_0x7ffff1e1e6c0) $x717 $x579 (or (not (= R0x7ffff1e08390 (_ bv1 1))) $x820) $x820 (= StMem_0x18a06fb0 parg_node_0x18a070c0) $x547 $x253 $x567 $x718 $x562 $x906 $x557 $x889 $x483 $x471 $x544 $x539 (= node_0x7ffff1e271f0 LdMem_0x7ffff1e1efd0) $x780 $x526 (= node_0x7ffff1e26470 LdMem_0x7ffff1e1e6c0) $x545 $x520 (= node_0x7ffff1e28ed0 fsub_0x7ffff1e29070) $x861 $x690 (= node_0x7ffff1e29f50 LdMem_0x7ffff1e255b0) $x918 $x680 $x730 $x675 (or (not (= R0x7ffff1e08390 (_ bv1 1))) $x506) $x506 (= StMem_0x18a07470 parg_node_0x18a07580) (= node_0x7ffff1e2b1f0 LdMem_0x7ffff1e2b370) $x691 $x663 $x245 $x658 $x715 $x653 $x884 $x450 (= node_0x7ffff1e2c6f0 si2f_0x7ffff1e2c890) $x640 $x637 (= node_0x7ffff1e2d000 LdMem_0x7ffff1e255b0) $x929 $x624 (= node_0x7ffff1e2c280 LdMem_0x7ffff1e1e6c0) $x792 $x618 (= node_0x7ffff1e2edf0 fsub_0x7ffff1e2ef90) $x745 $x911 $x895 $x304 $x711 (= node_0x7ffff1e35220 LdMem_0x7ffff1e19050) (= node_0x7ffff1e357b0 fmul_0x7ffff1e358e0) $x933 $x784 $x333 $x200 (= node_0x7ffff1e1af20 LdMem_0x7ffff1e19050) $x609 $x80 (= node_0x7ffff1e1a1e0 LdMem_0x7ffff1e18170) (= node_0x7ffff1e1b720 fsub_0x7ffff1e1b8c0) (= StMem_0x7ffff1e1bf20 node_0x7ffff1e1b720) (or (not (= R0x7ffff1e08390 (_ bv1 1))) $x909) $x909 $x924 $x162 $x356 (= node_0x7ffff1e33760 LdMem_0x7ffff1e19050) (= node_0x7ffff1e33d40 fmul_0x7ffff1e33e70) $x841))))))))))))))))))))))))))))))))))))))))))))))))))))))))))))))))))))))))))))))))))))))))))))))))))))))))))))))))))))))))))))))))))))))))))))))))))))))))))))))))))))))))))))))))))))))))))))))))))))))))))))))))
(assert
 (= parg_node_0xb398ed0_CS0x42ed9a0 node_0x18a054b0))
(assert
 (let (($x827 (= node_0x18a054b0 LdMem_0x18a04e60)))
 (let (($x940 (= LdMem_0x18a04e60 StMem_0x18a04fd0)))
 (and (or (not (= R0x7ffff1e08390 (_ bv1 1))) $x940) $x940 (= StMem_0x18a04fd0 parg_node_0x18a05180) $x827))))
(assert
 (= return_node_0x7ffff1e429b0_CS0x42ed9a0 ccso_node_0x7ffff1e1d2c0))
(assert
 (= node_0xfd66af0_CS0x42eafc0 pcso_node_0x189fb880))
(assert
 (= carg_node_0x7ffff1c37920_CS0x42eb808 node_0x7ffff1e12570))
(assert
 (let (($x270 (= fadd_0x7ffff1e12710 (bvadd ccso_node_0x7ffff1e0d9c0 (_ bv10000 64)))))
 (let (($x953 (= node_0x7ffff1e12570 fadd_0x7ffff1e12710)))
 (and $x953 $x270))))
(assert
 (= node_0xfe2db50_CS0x42eb808 pcso_node_0x189fdb80))
(assert
 (= carg_node_0x7ffff1c37920_CS0x42ec0f8 node_0x7ffff1e15140))
(assert
 (let (($x283 (= fadd_0x7ffff1e152e0 (bvadd ccso_node_0x7ffff1e14d60 (_ bv10000 64)))))
 (let (($x961 (= node_0x7ffff1e15140 fadd_0x7ffff1e152e0)))
 (and $x961 $x283))))
(assert
 (= node_0xfe2db50_CS0x42ec0f8 pcso_node_0x18a00f10))
(assert
 (= carg_node_0x7ffff1c37920_CS0x42ec5f8 node_0x7ffff1e15140))
(assert
 (= node_0xfe2db50_CS0x42ec5f8 pcso_node_0x18a02b80))
(assert
 (= node_0xfd66e40_CS0x42eafc0 pcso_node_0x189fbad0))
(assert
 (and (distinct carg_node_0x7ffff1e08910 (_ bv0 64)) true))
(minimize node_0x7ffff1e2c280)
(maximize R0x7ffff1e0b6f0)
(maximize parg_node_0x189fc080)
(maximize node_0x7ffff1e2edf0)
(maximize carg_node_0x7ffff1c37920_CS0x42ec5f8)
(maximize pcso_node_0x189fdb80)
(minimize fadd_0x7ffff1e2a8f0)
(minimize node_0x7ffff1e23d40)
(minimize node_0x7ffff1e25cd0)
(minimize srem_0x7ffff1e1dad0)
(minimize si2f_0x7ffff1e204a0)
(minimize and_0xb3adb40)
(minimize node_0x7ffff1e2dbd0)
(minimize StMem_0x18a07470)
(minimize parg_node_0x189fc080)
(minimize fadd_0x7ffff1e152e0)
(minimize si2f_0x7ffff1e1a7f0)
(maximize node_0xfe2db50_CS0x42ec0f8)
(maximize parg_node_0xb398ed0_CS0x42ed9a0)
(minimize StMem_0x7ffff1e21bf0)
(maximize R0xb3a5b80)
(maximize node_0x7ffff1e15140)
(maximize StMem_0x189fbc10)
(maximize fmul_0x7ffff1e2a520)
(maximize si2f_0x7ffff1e2c890)
(minimize fmul_0x7ffff1e2a520)
(minimize node_0x7ffff1e33760)
(minimize pcso_node_0x18a02f90)
(maximize StMem_0x18a03cd0)
(maximize return_node_0x7ffff1e429b0_CS0x42ed9a0)
(maximize node_0x7ffff1e21fc0)
(minimize return_node_0x7ffff1e429b0_CS0x42ed9a0)
(maximize R0xb3ad7b0)
(maximize fmul_0x7ffff1e277c0)
(minimize node_0x7ffff1e29f50)
(maximize and_0x7ffff1e0b1d0)
(minimize node_0x7ffff1e1b720)
(minimize node_0x7ffff1e2c6f0)
(minimize si2f_0x7ffff1e2c890)
(minimize fsub_0x7ffff1e29070)
(minimize node_0x7ffff1e21400)
(maximize ccso_node_0x7ffff1e14d60)
(minimize and_0x7ffff1e0c920)
(minimize LdMem_0x7ffff1e34a30)
(minimize si2f_0x7ffff1e2dd70)
(maximize si2f_0x7ffff1e27f60)
(minimize node_0x7ffff1e357b0)
(maximize ccso_node_0x7ffff1e0d9c0)
(maximize and_0x7ffff1e0c920)
(minimize f2si_0x7ffff1e19960)
(minimize pcso_node_0x18a00f10)
(maximize node_0x7ffff1e35220)
(maximize node_0x7ffff1e25cd0)
(minimize xor_0xb3a4d80)
(maximize xor_0xb3a4530)
(minimize StMem_0x189fbf70)
(maximize StMem_0xb3749e0)
(minimize R0xb3ac6f0)
(maximize srem_0x7ffff1e1dad0)
(minimize fmul_0x7ffff1e277c0)
(maximize node_0x7ffff1e2dbd0)
(minimize node_0x7ffff1e12570)
(minimize R0xb3a4ba0)
(maximize node_0x7ffff1e271f0)
(maximize node_0x7ffff1e1b720)
(minimize folt_0x7ffff1e340a0)
(minimize node_0x7ffff1e1f740)
(maximize pcso_node_0x18a00f10)
(maximize R0x7ffff1e097d0)
(minimize R0x7ffff1e097d0)
(maximize node_0x7ffff1e357b0)
(minimize node_0x7ffff1e193a0)
(minimize and_0xb3acf10)
(minimize StMem_0x189fe140)
(minimize StMem_0x18a06fb0)
(maximize fmul_0x7ffff1e211d0)
(maximize and_0xb3ac3e0)
(minimize StMem_0x189fbc10)
(maximize and_0xb3a58c0)
(minimize and_0xb3ad4f0)
(minimize f2si_0x7ffff1e2bc80)
(minimize node_0x7ffff1e21fc0)
(maximize StMem_0x189fb9c0)
(maximize StMem_0x18a04fd0)
(minimize node_0x7ffff1e1f320)
(minimize ieq_0x7ffff1e11de0)
(minimize fmul_0x7ffff1e28ca0)
(minimize fmul_0x7ffff1e2d5d0)
(maximize node_0x7ffff1e0d870)
(maximize node_0x7ffff1e2ea40)
(minimize node_0x7ffff1e20c50)
(minimize si2f_0x7ffff1e27f60)
(minimize node_0x7ffff1e091e0)
(maximize node_0x7ffff1e21050)
(maximize fdiv_0x7ffff1e19540)
(maximize StMem_0x189fdd30)
(minimize node_0xfd66af0_CS0x42eafc0)
(maximize xor_0xb3a4d80)
(minimize node_0x7ffff1e1a1e0)
(check-sat)
(get-objectives)
